p cnf 91 377
7 40 42 45 46 -87 0
10 21 22 69 70 -77 0
10 -21 22 -69 -72 -77 0
-3 -16 -51 67 68 0
-5 52 78 82 84 0
7 -43 45 46 -87 0
-8 20 41 -54 -70 0
11 12 -27 34 57 0
11 26 -27 34 57 0
-16 -50 -51 68 -89 0
-16 -50 -51 68 -91 0
-38 41 53 -54 -72 0
1 2 24 56 0
1 -32 56 -62 0
1 42 60 -83 0
-1 -24 35 -59 0
3 4 19 51 0
3 4 -68 -91 0
3 23 -50 51 0
-3 -51 67 -68 0
4 51 68 -89 0
-4 52 -78 -84 0
-5 -35 37 63 0
-6 -35 -65 -74 0
-6 36 37 62 0
-7 -8 -42 -60 0
-8 45 48 55 0
9 -47 -48 64 0
11 -31 -76 -80 0
12 13 57 -78 0
12 13 57 79 0
12 -73 78 -79 0
-12 -31 78 -79 0
13 -14 58 -73 0
13 -16 67 85 0
13 49 67 85 0
-13 -49 90 -91 0
-13 68 -85 -91 0
-13 -85 90 -91 0
-15 29 -30 57 0
-15 58 76 -80 0
-16 -19 -23 -85 0
18 46 47 64 0
-18 -39 -40 -43 0
-19 -23 -28 -34 0
-19 -38 54 81 0
20 21 22 88 0
-21 42 60 83 0
-22 -41 70 -88 0
23 -32 56 59 0
-23 -51 -68 -89 0
25 32 33 65 0
-28 -31 57 78 0
29 30 -31 -73 0
-42 -69 83 88 0
51 68 -81 -85 0
3 -16 -50 -91 0
-3 -16 67 68 0
4 -51 68 -91 0
-4 -63 78 84 0
-8 10 21 88 0
-8 46 48 -55 0
-8 -60 -83 87 0
10 -69 83 88 0
12 57 78 79 0
13 58 -73 -78 0
-16 -49 -51 -91 0
-18 -19 -47 -48 0
-19 -23 -79 84 0
22 41 71 -72 0
24 -35 56 59 0
-24 -25 -26 -59 0
26 -27 -28 57 0
-35 -52 -74 82 0
-42 45 46 60 0
-61 62 78 84 0
-63 -78 82 -84 0
1 7 8 0
-1 -2 73 0
-1 8 -88 0
-1 -24 59 0
2 3 -62 0
2 5 -62 0
2 -56 59 0
3 -68 -91 0
-3 -19 51 0
-3 50 -66 0
-3 50 67 0
4 -32 61 0
6 -36 -37 0
-7 8 -70 0
-8 -9 -46 0
-8 42 70 0
9 40 55 0
-9 -19 -40 0
10 11 12 0
10 -12 -57 0
10 49 -86 0
-10 -26 -34 0
11 -30 -31 0
-11 -19 80 0
13 49 57 0
13 51 91 0
13 67 -90 0
13 86 89 0
13 86 -90 0
15 31 57 0
-16 -23 -89 0
17 19 38 0
17 38 70 0
-17 40 -43 0
-17 44 77 0
-17 -44 71 0
18 39 69 0
-18 -19 -53 0
-18 -38 -39 0
19 27 69 0
19 28 59 0
19 -36 74 0
19 39 64 0
19 -51 85 0
-19 20 -69 0
-19 -25 -27 0
-19 -49 -86 0
-19 -61 65 0
-20 -22 70 0
-20 69 70 0
22 -41 53 0
-22 -41 -53 0
-22 70 -71 0
23 26 34 0
23 28 -33 0
23 -30 37 0
23 38 54 0
23 39 60 0
23 -51 85 0
23 -74 -75 0
-23 -24 26 0
-23 -44 -55 0
-23 -47 81 0
24 -32 59 0
25 27 34 0
25 74 75 0
-25 27 -34 0
-25 -65 74 0
27 34 -57 0
27 -34 57 0
-27 -28 -33 0
28 31 57 0
-29 30 -36 0
30 -31 57 0
30 33 36 0
-31 57 -79 0
32 -56 61 0
-32 -33 -34 0
-32 -56 -61 0
-33 37 -56 0
36 -37 63 0
-36 61 62 0
38 -44 77 0
40 -43 87 0
-40 43 87 0
41 48 64 0
-41 -64 -72 0
44 47 -81 0
-45 -48 -55 0
46 -47 -64 0
-46 47 -64 0
50 66 67 0
50 66 89 0
-50 51 -89 0
-50 66 89 0
58 -76 80 0
-58 76 80 0
-60 83 -87 0
-61 -62 -74 0
65 -74 -82 0
66 67 -90 0
66 -86 90 0
-66 -67 -86 0
-66 -70 86 0
-66 86 90 0
-68 -86 91 0
-69 70 -88 0
74 -75 76 0
1 2 0
1 32 0
1 -32 0
1 -42 0
1 -43 0
1 -60 0
1 -84 0
1 88 0
-1 -2 0
-1 -3 0
-1 4 0
-1 8 0
-1 -10 0
-1 -30 0
-1 -59 0
-1 62 0
2 3 0
2 6 0
2 59 0
2 -61 0
-2 -6 0
-2 61 0
-2 73 0
-2 -76 0
-2 82 0
3 -16 0
3 28 0
3 -62 0
3 -67 0
-3 -16 0
-3 50 0
-3 51 0
-3 -51 0
-3 -66 0
-3 68 0
-3 -68 0
-3 77 0
4 -6 0
4 16 0
4 -51 0
4 52 0
4 -52 0
4 -61 0
4 78 0
4 81 0
4 -82 0
4 -84 0
4 89 0
-4 78 0
-4 -79 0
-4 84 0
5 -78 0
5 -82 0
5 -84 0
-5 29 0
-5 61 0
-5 -82 0
6 35 0
6 -62 0
6 63 0
6 -82 0
-6 65 0
-6 74 0
7 -8 0
7 -48 0
7 60 0
7 64 0
-7 -46 0
-7 87 0
8 -18 0
8 -45 0
8 64 0
8 83 0
-8 -64 0
-8 -88 0
9 -87 0
-9 43 0
-9 -45 0
10 20 0
10 -28 0
10 -30 0
10 -34 0
10 42 0
10 -70 0
-10 -11 0
-10 27 0
-10 83 0
-10 -83 0
-10 90 0
11 14 0
11 -19 0
11 26 0
11 58 0
-11 12 0
-11 -14 0
-11 31 0
-11 -57 0
-11 76 0
12 -23 0
12 -27 0
12 -29 0
12 34 0
12 -61 0
12 -73 0
12 -79 0
-12 -16 0
-12 25 0
-12 31 0
-12 -58 0
-12 73 0
-12 -78 0
-12 -82 0
13 -16 0
13 -73 0
13 84 0
13 -84 0
13 89 0
-13 28 0
-13 68 0
-13 -80 0
-13 86 0
14 -57 0
14 -58 0
14 -78 0
14 -79 0
-14 -15 0
-14 -31 0
-14 -76 0
15 -29 0
15 57 0
15 -58 0
-15 -63 0
16 19 0
16 49 0
16 50 0
16 51 0
16 -68 0
-16 -49 0
-16 85 0
-16 -85 0
17 40 0
17 44 0
17 -77 0
-17 -18 0
-17 -69 0
-17 -72 0
-17 -77 0
-17 80 0
18 21 0
18 42 0
18 54 0
18 56 0
-18 25 0
-18 -38 0
-18 -55 0
-18 -60 0
-18 -64 0
19 -30 0
19 32 0
19 42 0
19 47 0
19 -50 0
19 -65 0
19 68 0
19 75 0
19 -76 0
19 -80 0
19 -85 0
19 90 0
-19 -24 0
-19 36 0
-19 -41 0
-19 -54 0
-19 -60 0
-19 81 0
-19 -84 0
-19 86 0
-19 91 0
20 -38 0
20 53 0
20 -88 0
-20 -21 0
-20 -22 0
-20 72 0
-20 77 0
21 -42 0
21 60 0
21 -72 0
-21 -54 0
-21 88 0
-21 -88 0
22 -44 0
